\ Model Calcul_Borne_Inf_L
\ LP format - for model browsing. Use MPS format to capture full model detail.
Minimize
  0.3936567902565002 C2 - 3.009989738464355 C3 + 5.603673458099365 Constant
Subject To
 R0: C0 <= 4.785310745239258
 R1: C0 >= -1.214689373970032
 R2: C1 <= 4.789664745330811
 R3: C1 >= -1.210335254669189
 R4: 0.3094948530197144 C0 + 0.0461927764117718 C1 + C2
   >= 0.1512775123119354
 R5: 0.0626275159637336 C0 + 0.00934729225352622 C1 + C2
   <= 0.3750741255936378
 R6: 2.472066402435303 C0 - 3.339637041091919 C1 + C3 >= 1.378510594367981
 R7: 1.346869553390786 C0 - 1.819552842751973 C1 + C3 <= 9.398520128733843
Bounds
 C0 >= -1.224689373970032
 C1 >= -1.220335254669189
 C2 >= -1.712276945114136
 C3 >= -15.8816869354248
 Constant = 1
End
